92 92
21 50
31 92
18 86
33 43
36 48
35 47
18 39
32 63
2 84
7 18
23 87
19 20
22 32
41 58
3 2
6 44
11 42
38 31
22 37
27 59
29 17
30 78
28 49
42 54
13 80
40 76
43 40
32 6
24 52
17 38
5 7
2 3
23 64
39 35
27 74
26 10
1 19
4 82
45 69
12 9
13 8
29 61
11 21
43 56
37 41
4 51
34 89
3 77
42 53
20 65
40 27
19 14
8 22
16 85
8 71
30 91
41 12
39 23
31 45
46 60
38 33
34 57
12 81
25 24
10 25
14 79
45 68
36 72
15 88
28 26
20 29
1 62
46 30
33 70
37 34
7 1
15 66
14 5
10 67
5 4
25 11
26 55
6 15
44 28
24 16
44 90
21 83
9 13
9 36
16 46
17 75
35 73
